(set-option :produce-models true)
(set-logic QF_UF)
(declare-fun p23() Bool)
(declare-fun p11() Bool)
(declare-fun p8() Bool)
(declare-fun p26() Bool)
(declare-fun p37() Bool)
(declare-fun p14() Bool)
(declare-fun p18() Bool)
(declare-fun p36() Bool)
(declare-fun p19() Bool)
(declare-fun p1() Bool)
(declare-fun p7() Bool)
(declare-fun p28() Bool)
(declare-fun p31() Bool)
(declare-fun p35() Bool)
(declare-fun p9() Bool)
(declare-fun p24() Bool)
(declare-fun p13() Bool)
(declare-fun p22() Bool)
(declare-fun p38() Bool)
(declare-fun p29() Bool)
(declare-fun p15() Bool)
(declare-fun p5() Bool)
(declare-fun p12() Bool)
(declare-fun p17() Bool)
(declare-fun p10() Bool)
(declare-fun p25() Bool)
(declare-fun p0() Bool)
(declare-fun p16() Bool)
(declare-fun p27() Bool)
(declare-fun p3() Bool)
(declare-fun p34() Bool)
(declare-fun p6() Bool)
(declare-fun p33() Bool)
(declare-fun p30() Bool)
(declare-fun p20() Bool)
(declare-fun p21() Bool)
(declare-fun p4() Bool)
(declare-fun p39() Bool)
(declare-fun p32() Bool)
(declare-fun p2() Bool)
(assert
(and (or p23 (not p11) p8) (or (not p26) (not p37) p14) (or (not p18) (not p36) (not p19)) (or (not p1) p18 (not p7)) (or (not p36) p28 p31) (or p35 p9 (not p1)) (or (not p24) p13 (not p7)) (or p8 p28 (not p22)) (or p38 p29 p15) (or p37 (not p23) p5) (or p12 p31 (not p29)) (or p17 p10 (not p19)) (or (not p25) p0 p16) (or p9 (not p18) p25) (or (not p11) (not p23) (not p27)) (or (not p3) p34 (not p13)) (or (not p35) (not p6) (not p38)) (or p34 p37 p33) (or (not p10) (not p10) (not p30)) (or p25 (not p20) p21) (or p4 (not p39) (not p30)) (or p12 p26 (not p26)) (or p13 (not p0) (not p16)) (or (not p1) (not p18) (not p16)) (or p32 p2 p13) (or p34 p34 (not p21)) (or p5 p12 p30) (or (not p35) (not p36) p34) (or p24 p36 (not p1)) (or (not p3) p22 p6) (or (not p15) (not p8) (not p22)) (or (not p39) (not p16) p11) (or p8 p22 (not p1)) (or p18 p16 (not p32)) (or p15 (not p5) (not p30)) (or p35 p36 p25) (or p11 (not p7) (not p30)) (or (not p0) p7 (not p16)) (or (not p20) p15 (not p0)) (or (not p16) (not p16) p17) (or p10 p10 (not p28)) (or (not p22) p37 (not p35)) (or p21 p15 (not p25)) (or p7 p4 (not p27)) (or p3 p32 p3) (or (not p3) p6 p38) (or (not p2) p33 (not p9)) (or (not p37) (not p2) p25) (or (not p29) (not p30) p23) (or (not p31) (not p8) p1) (or (not p38) (not p12) p30) (or p24 p16 (not p28)) (or (not p32) p26 p32) (or (not p19) p1 p8) (or (not p32) p1 p1) (or p5 (not p5) (not p27)) (or (not p11) (not p14) p27) (or p6 (not p33) (not p31)) (or (not p33) p37 (not p18)) (or (not p0) p14 (not p32)) (or p23 (not p24) p14) (or p13 (not p37) p32) (or p31 p0 p32) (or (not p6) (not p36) (not p17)) (or p33 p1 (not p25)) (or (not p31) p21 p26) (or p9 p24 p25) (or p26 p29 p15) (or (not p28) (not p9) p9) (or p11 p3 p0) (or p12 (not p30) p16) (or p27 p5 p38) (or p28 (not p4) p16) (or p8 (not p17) p21) (or (not p2) (not p7) (not p29)) (or p30 p0 p34) (or (not p14) p22 p0) (or (not p39) (not p5) p8) (or (not p19) (not p7) p14) (or (not p37) (not p6) (not p34)) (or (not p12) (not p26) (not p31)) (or (not p32) (not p26) p32) (or p36 p22 (not p36)) (or (not p19) p34 (not p36)) (or (not p30) (not p9) p27) (or p30 p14 p6) (or p12 (not p38) p33) (or (not p34) p7 (not p13)) (or (not p27) p6 p13) (or p33 p4 (not p18)) (or (not p5) (not p20) p5) (or (not p19) (not p16) (not p35)) (or p23 (not p6) (not p27)) (or p23 (not p38) p4) (or p16 p35 p16) (or p34 p19 p16) (or (not p21) (not p30) p38) (or (not p14) (not p32) p17) (or p34 p8 (not p33)) (or (not p11) p2 p21) (or (not p37) p21 (not p28)) (or (not p2) p35 (not p39)) (or p28 p7 (not p6)) (or (not p37) (not p7) (not p16)) (or p24 p8 (not p24)) (or p6 p29 p21) (or p38 p27 (not p29)) (or (not p1) p19 (not p28)) (or (not p8) p13 p36) (or p18 p1 p10) (or p19 (not p5) p39) (or (not p38) (not p26) (not p20)) (or (not p37) (not p39) p24) (or (not p24) p9 p25) (or p24 p35 p21) (or (not p5) (not p13) p26) (or p24 (not p24) (not p28)) (or p11 (not p4) p0) (or p30 (not p1) (not p26)) (or p36 (not p20) (not p10)) (or p19 (not p21) (not p0)) (or p38 (not p37) p27) (or (not p0) (not p37) p25) (or p1 (not p22) (not p22)) (or p2 (not p28) (not p12)) (or p13 p26 p32) (or p14 p11 (not p32)) (or (not p4) (not p16) (not p14)) (or (not p33) (not p9) (not p3)) (or p11 (not p5) (not p16)) (or (not p24) p25 p2) (or (not p25) p15 (not p7)) (or (not p32) (not p31) p26) (or p16 (not p35) (not p14)) (or (not p39) (not p28) p19) (or p1 (not p27) (not p20)) (or (not p28) (not p2) p22) (or p29 (not p6) (not p17)) (or p29 p25 p4) (or p36 p32 p28) (or p27 p1 (not p10)) (or p23 p17 (not p9)) (or (not p22) p15 (not p15)) (or (not p30) (not p19) (not p10)) (or (not p35) p1 (not p31)) (or p20 (not p39) (not p33)) (or (not p14) (not p0) (not p4)) (or (not p10) (not p14) p27) (or p4 p20 p6) (or (not p21) p32 (not p9)) (or (not p26) (not p39) (not p10)) (or (not p7) (not p24) p15) (or (not p32) p33 p32) (or p1 p1 p36) (or p27 p21 (not p34)) (or (not p37) p38 (not p15)) (or p29 (not p37) (not p38)) (or p11 (not p31) (not p29)) (or p37 p22 (not p30)) (or (not p19) p23 (not p23)) (or p25 (not p0) (not p36)) (or (not p1) (not p32) (not p18)) (or p14 (not p0) p23) (or p1 (not p15) p8) (or (not p3) p27 p23) (or (not p17) p14 p12) (or (not p18) p11 (not p5)) (or p37 (not p3) (not p5)) (or p25 p14 p39) (or p1 (not p16) (not p11)) (or p4 p34 p39))
)
(check-sat)
(get-model)
